proyfinal/src/viki/013/experimentInOfficeAgust.take6.output/6a9c94c9-237c-4f8c-b75d-ff759c8e1725.als.out
Reading from standard input... Use '--help' for help.
============================[ Problem Statistics ]=============================
|                                                                             |
|  Number of variables:         87638                                         |
|  Number of clauses:          161767                                         |
|  Parse time:                   0.04 s                                       |
|                                                                             |
============================[ Search Statistics ]==============================
| Conflicts |          ORIGINAL         |          LEARNT          | Progress |
|           |    Vars  Clauses Literals |    Limit  Clauses Lit/Cl |          |
===============================================================================
|       100 |   63122   107906   269602 |    39565      100     10 | 27.974 % |
|       250 |   63122   107906   269602 |    43522      250    181 | 27.974 % |
|       475 |   63102   107822   269409 |    47874      474    172 | 27.997 % |
|       812 |   63101   107778   269319 |    52661      810    129 | 27.998 % |
|      1318 |   63101   107778   269319 |    57927     1316    107 | 27.998 % |
|      2077 |   63081   107700   269138 |    63720     2074     91 | 28.021 % |
|      3216 |   63081   107700   269138 |    70092     3213     85 | 28.021 % |
|      4924 |   63069   107638   268992 |    77102     4920     85 | 28.035 % |
|      7486 |   62918   107598   268912 |    84812     7276     83 | 28.207 % |
|     11330 |   62892   107022   267589 |    93293    11108     91 | 28.237 % |
===============================================================================
restarts              : 61
conflicts             : 13804          (6332 /sec)
decisions             : 58334          (0.00 % random) (26760 /sec)
propagations          : 21315621       (9778108 /sec)
conflict literals     : 1215742        (49.57 % deleted)
Memory used           : 29.51 MB
CPU time              : 2.17993 s

INDETERMINATE
